50
    1   223   169
    2   397   354
    3   452   404
    4   505   465
    5   236   222
    6    42    55
    7   368   415
    8   470   425
    9   367   391
   10   635   600
   11   151   181
   12   507   553
   13   289   230
   14   177   186
   15   536   534
   16    53    50
   17   418   423
   18    19    30
   19     1     3
   20   319   268
   21   345   367
   22   247   229
   23     1    38
   24   411   460
   25   285   326
   26   488   502
   27   124    68
   28    82    61
   29   315   295
   30   469   469
   31   475   467
   32    32    89
   33   418   469
   34   338   331
   35   547   574
   36   350   343
   37   310   286
   38   135    90
   39   287   262
   40     1     4
   41   267   265
   42   447   415
   43   290   328
   44   558   539
   45   430   385
   46   132    72
   47   453   491
   48   223   255
   49   282   273
   50   183   190
601
